
Log started (V11.0.0) Wed May 14 12:42:57 2008

Tried aggregator 1 time.
Reduced MIP has 120 rows, 2001 columns, and 4020 nonzeros.
Presolve time =    0.02 sec.
Clique table members: 100.
MIP emphasis: balance optimality and feasibility.
MIP search method: dynamic search.
Parallel mode: none, using 1 thread.
Root relaxation solution time =    0.05 sec.

        Nodes                                         Cuts/
   Node  Left     Objective  IInf  Best Integer     Best Node    ItCnt     Gap

*     0+    0                        11073.0000      503.9926      256   95.45%
*     0+    0                          512.0000      503.9926      256    1.56%
      0     0      504.0442    41      512.0000      Fract: 6      264    1.55%
*     0+    0                          511.0000      504.0442      264    1.36%
      0     0      504.4849    45      511.0000       Cuts: 5      319    1.27%
      0     0      505.3665    49      511.0000    MIRcuts: 4      362    1.10%
      0     0      505.3923    51      511.0000       Cuts: 3      388    1.10%
      0     0      505.3941    51      511.0000       Cuts: 6      398    1.10%
      0     0      505.5277    48      511.0000       Cuts: 5      461    1.07%
      0     0      505.5669    51      511.0000    MIRcuts: 3      477    1.06%
      0     0      505.6976    54      511.0000       Cuts: 5      507    1.04%
      0     0      505.7025    54      511.0000    MIRcuts: 3      536    1.04%
*     0+    0                          508.0000      505.7025      536    0.45%
      0     2      506.0000    45      508.0000      505.7025      536    0.45%
    100    49    infeasible            508.0000      506.0000     2654    0.39%
    200    95      506.0000    40      508.0000      506.0000     5714    0.39%
    300   155      506.0000    38      508.0000      506.0000     7746    0.39%
    400   190    infeasible            508.0000      506.0000    10148    0.39%

Cover cuts applied:  4
Mixed integer rounding cuts applied:  5
Gomory fractional cuts applied:  7

Solution pool: 4 solutions saved.

MIP - Integer optimal solution:  Objective = 5.0800000000e+002
Solution time =    4.08 sec.  Iterations = 13426  Nodes = 471 (216)


Incumbent solution
Variable Name           Solution Value
Cmax                        508.000000
X_1_3                         1.000000
X_2_10                        1.000000
X_3_8                         1.000000
X_4_11                        1.000000
X_5_8                         1.000000
X_6_4                         1.000000
X_7_18                        1.000000
X_8_18                        1.000000
X_9_3                         1.000000
X_10_7                        1.000000
X_11_16                       1.000000
X_12_4                        1.000000
X_13_2                        1.000000
X_14_6                        1.000000
X_15_15                       1.000000
X_16_12                       1.000000
X_17_15                       1.000000
X_18_14                       1.000000
X_19_12                       1.000000
X_20_19                       1.000000
X_21_12                       1.000000
X_22_17                       1.000000
X_23_12                       1.000000
X_24_17                       1.000000
X_25_15                       1.000000
X_26_20                       1.000000
X_27_13                       1.000000
X_28_13                       1.000000
X_29_4                        1.000000
X_30_18                       1.000000
X_31_17                       1.000000
X_32_2                        1.000000
X_33_17                       1.000000
X_34_2                        1.000000
X_35_3                        1.000000
X_36_9                        1.000000
X_37_7                        1.000000
X_38_13                       1.000000
X_39_17                       1.000000
X_40_6                        1.000000
X_41_11                       1.000000
X_42_14                       1.000000
X_43_11                       1.000000
X_44_11                       1.000000
X_45_1                        1.000000
X_46_1                        1.000000
X_47_1                        1.000000
X_48_8                        1.000000
X_49_16                       1.000000
X_50_20                       1.000000
X_51_12                       1.000000
X_52_7                        1.000000
X_53_10                       1.000000
X_54_20                       1.000000
X_55_13                       1.000000
X_56_3                        1.000000
X_57_3                        1.000000
X_58_9                        1.000000
X_59_2                        1.000000
X_60_19                       1.000000
X_61_18                       1.000000
X_62_6                        1.000000
X_63_6                        1.000000
X_64_16                       1.000000
X_65_5                        1.000000
X_66_8                        1.000000
X_67_8                        1.000000
X_68_14                       1.000000
X_69_6                        1.000000
X_70_15                       1.000000
X_71_9                        1.000000
X_72_19                       1.000000
X_73_20                       1.000000
X_74_19                       1.000000
X_75_13                       1.000000
X_76_5                        1.000000
X_77_20                       1.000000
X_78_9                        1.000000
X_79_7                        1.000000
X_80_11                       1.000000
X_81_10                       1.000000
X_82_14                       1.000000
X_83_1                        1.000000
X_84_5                        1.000000
X_85_15                       1.000000
X_86_18                       1.000000
X_87_7                        1.000000
X_88_5                        1.000000
X_89_16                       1.000000
X_90_9                        1.000000
X_91_2                        1.000000
X_92_5                        1.000000
X_93_19                       1.000000
X_94_16                       1.000000
X_95_1                        1.000000
X_96_10                       1.000000
X_97_10                       1.000000
X_98_4                        1.000000
X_99_14                       1.000000
X_100_4                       1.000000
All other variables in the range 1-2001 are 0.
